(declare-const X String)
; Host\x3AHost\x3afhfksjzsfu\x2fahm\.uqsHost\x3Afowclxccdxn\x2fuxwn\.ddy
(assert (str.in_re X (str.to_re "Host:Host:fhfksjzsfu/ahm.uqsHost:fowclxccdxn/uxwn.ddy\u{a}")))
(check-sat)
